\ LP format - for model browsing. Use MPS format to capture full model detail.
Minimize
  I95(1)
Subject To
 c0: B0(11) = 1
 c1: B1(11) = 1
 c2: B2(11) = 1
 c3: B3(13) = 1
 c4: B4(7) = 1
 c5: B5(11) = 1
 c6: B6(13) = 1
 c7: B7(11) = 1
 c8: B8(7) = 1
 c9: B9(11) = 1
 c10: B10(12) = 1
 c11: B11(8) = 1
 c12: B12(12) = 1
 c13: B13(12) = 1
 c14: B14(14) = 1
 c15: B15(12) = 1
 c16: B16(12) = 1
 c17: B17(12) = 1
 c18: B18(14) = 1
 c19: B19(11) = 1
 c20: B20(11) = 1
 c21: B21(11) = 1
 c22: B22(11) = 1
 c23: B23(11) = 1
 c24: - 4.32e+06 B0(11) + I71(12) <= 0
 c25: - 4.32e+06 B1(11) + I72(13) <= 0
 c26: - 4.32e+06 B2(11) + I73(13) <= 0
 c27: - 4.32e+06 B3(13) + I74(15) <= 0
 c28: - 4.32e+06 B4(7) + I75(9) <= 0
 c29: - 4.32e+06 B5(11) + I76(12) <= 0
 c30: - 4.32e+06 B6(13) + I77(15) <= 0
 c31: - 4.32e+06 B7(11) + I78(13) <= 0
 c32: - 4.32e+06 B8(7) + I79(9) <= 0
 c33: - 4.32e+06 B9(11) + I80(13) <= 0
 c34: - 4.32e+06 B10(12) + I81(12) <= 0
 c35: - 4.32e+06 B11(8) + I82(9) <= 0
 c36: - 4.32e+06 B12(12) + I83(13) <= 0
 c37: - 4.32e+06 B13(12) + I84(13) <= 0
 c38: - 4.32e+06 B14(14) + I85(15) <= 0
 c39: - 4.32e+06 B15(12) + I86(12) <= 0
 c40: - 4.32e+06 B16(12) + I87(13) <= 0
 c41: - 4.32e+06 B17(12) + I88(13) <= 0
 c42: - 4.32e+06 B18(14) + I89(15) <= 0
 c43: - 4.32e+06 B19(11) + I90(12) <= 0
 c44: - 4.32e+06 B20(11) + I91(13) <= 0
 c45: - 4.32e+06 B21(11) + I92(13) <= 0
 c46: - 4.32e+06 B22(11) + I93(13) <= 0
 c47: - 4.32e+06 B23(11) + I94(13) <= 0
 c48: - 1440 B0(11) - I71(12) + I72(13) >= 0
 c49: - 2880 B1(11) - I72(13) + I73(13) >= 0
 c50: - 2880 B2(11) - I73(13) + I74(15) >= 0
 c51: - 1440 B3(13) - I74(15) + I75(9) >= 0
 c52: - 1440 B5(11) - I76(12) + I77(15) >= 0
 c53: - 1440 B6(13) - I77(15) + I78(13) >= 0
 c54: - 1440 B7(11) - I78(13) + I79(9) >= 0
 c55: - 1440 B8(7) - I79(9) + I80(13) >= 0
 c56: - 1440 B10(12) - I81(12) + I82(9) >= 0
 c57: - 2880 B11(8) - I82(9) + I83(13) >= 0
 c58: - 4320 B12(12) - I83(13) + I84(13) >= 0
 c59: - 1440 B13(12) - I84(13) + I85(15) >= 0
 c60: - 1440 B15(12) - I86(12) + I87(13) >= 0
 c61: - 2880 B16(12) - I87(13) + I88(13) >= 0
 c62: - 2880 B17(12) - I88(13) + I89(15) >= 0
 c63: - 2880 B19(11) - I90(12) + I91(13) >= 0
 c64: - 1440 B20(11) - I91(13) + I92(13) >= 0
 c65: - 1440 B21(11) - I92(13) + I93(13) >= 0
 c66: - 1440 B22(11) - I93(13) + I94(13) >= 0
 c67: - 4.32e+06 B0(11) - 4.32e+06 B5(11) - 4.32e+06 B24(2) + I71(12)
   - I76(12) >= -1.2958505e+07
 c68: - 4.32e+06 B0(11) - 4.32e+06 B5(11) + 4.32e+06 B24(2) - I71(12)
   + I76(12) >= -8.638369e+06
 c69: - 4.32e+06 B0(11) - 4.32e+06 B10(12) - 4.32e+06 B25(2) + I71(12)
   - I81(12) >= -1.2958297e+07
 c70: - 4.32e+06 B0(11) - 4.32e+06 B10(12) + 4.32e+06 B25(2) - I71(12)
   + I81(12) >= -8.638288e+06
 c71: - 4.32e+06 B0(11) - 4.32e+06 B15(12) - 4.32e+06 B26(2) + I71(12)
   - I86(12) >= -1.295804e+07
 c72: - 4.32e+06 B0(11) - 4.32e+06 B15(12) + 4.32e+06 B26(2) - I71(12)
   + I86(12) >= -8.638544e+06
 c73: - 4.32e+06 B0(11) - 4.32e+06 B19(11) - 4.32e+06 B27(2) + I71(12)
   - I90(12) >= -1.295703e+07
 c74: - 4.32e+06 B0(11) - 4.32e+06 B19(11) + 4.32e+06 B27(2) - I71(12)
   + I90(12) >= -8.638057e+06
 c75: - 4.32e+06 B1(11) - 4.32e+06 B9(11) - 4.32e+06 B28(2) + I72(13)
   - I80(13) >= -1.295794e+07
 c76: - 4.32e+06 B1(11) - 4.32e+06 B9(11) + 4.32e+06 B28(2) - I72(13)
   + I80(13) >= -8.6369e+06
 c77: - 4.32e+06 B1(11) - 4.32e+06 B12(12) - 4.32e+06 B29(2) + I72(13)
   - I83(13) >= -1.2955181e+07
 c78: - 4.32e+06 B1(11) - 4.32e+06 B12(12) + 4.32e+06 B29(2) - I72(13)
   + I83(13) >= -8.6366e+06
 c79: - 4.32e+06 B1(11) - 4.32e+06 B17(12) - 4.32e+06 B30(2) + I72(13)
   - I88(13) >= -1.295706e+07
 c80: - 4.32e+06 B1(11) - 4.32e+06 B17(12) + 4.32e+06 B30(2) - I72(13)
   + I88(13) >= -8.636985e+06
 c81: - 4.32e+06 B1(11) - 4.32e+06 B22(11) - 4.32e+06 B31(2) + I72(13)
   - I93(13) >= -1.295822e+07
 c82: - 4.32e+06 B1(11) - 4.32e+06 B22(11) + 4.32e+06 B31(2) - I72(13)
   + I93(13) >= -8.636851e+06
 c83: - 4.32e+06 B2(11) - 4.32e+06 B7(11) - 4.32e+06 B32(2) + I73(13)
   - I78(13) >= -1.2958032e+07
 c84: - 4.32e+06 B2(11) - 4.32e+06 B7(11) + 4.32e+06 B32(2) - I73(13)
   + I78(13) >= -8.636772e+06
 c85: - 4.32e+06 B2(11) - 4.32e+06 B13(12) - 4.32e+06 B33(2) + I73(13)
   - I84(13) >= -1.2958487e+07
 c86: - 4.32e+06 B2(11) - 4.32e+06 B13(12) + 4.32e+06 B33(2) - I73(13)
   + I84(13) >= -8.636626e+06
 c87: - 4.32e+06 B2(11) - 4.32e+06 B16(12) - 4.32e+06 B34(2) + I73(13)
   - I87(13) >= -1.295649e+07
 c88: - 4.32e+06 B2(11) - 4.32e+06 B16(12) + 4.32e+06 B34(2) - I73(13)
   + I87(13) >= -8.637011e+06
 c89: - 4.32e+06 B2(11) - 4.32e+06 B20(11) - 4.32e+06 B35(2) + I73(13)
   - I91(13) >= -1.2958516e+07
 c90: - 4.32e+06 B2(11) - 4.32e+06 B20(11) + 4.32e+06 B35(2) - I73(13)
   + I91(13) >= -8.636847e+06
 c91: - 4.32e+06 B3(13) - 4.32e+06 B6(13) - 4.32e+06 B36(2) + I74(15)
   - I77(15) >= -1.295818e+07
 c92: - 4.32e+06 B3(13) - 4.32e+06 B6(13) + 4.32e+06 B36(2) - I74(15)
   + I77(15) >= -8.638374e+06
 c93: - 4.32e+06 B3(13) - 4.32e+06 B14(14) - 4.32e+06 B37(2) + I74(15)
   - I85(15) >= -1.295841e+07
 c94: - 4.32e+06 B3(13) - 4.32e+06 B14(14) + 4.32e+06 B37(2) - I74(15)
   + I85(15) >= -8.638451e+06
 c95: - 4.32e+06 B3(13) - 4.32e+06 B18(14) - 4.32e+06 B38(2) + I74(15)
   - I89(15) >= -1.2956606e+07
 c96: - 4.32e+06 B3(13) - 4.32e+06 B18(14) + 4.32e+06 B38(2) - I74(15)
   + I89(15) >= -8.638552e+06
 c97: - 4.32e+06 B3(13) - 4.32e+06 B21(11) - 4.32e+06 B39(2) + I74(15)
   - I92(13) >= -1.2958419e+07
 c98: - 4.32e+06 B3(13) - 4.32e+06 B21(11) + 4.32e+06 B39(2) - I74(15)
   + I92(13) >= -8.638524e+06
 c99: - 4.32e+06 B3(13) - 4.32e+06 B23(11) - 4.32e+06 B40(2) + I74(15)
   - I94(13) >= -1.2958521e+07
 c100: - 4.32e+06 B3(13) - 4.32e+06 B23(11) + 4.32e+06 B40(2) - I74(15)
   + I94(13) >= -8.638331e+06
 c101: - 4.32e+06 B4(7) - 4.32e+06 B8(7) - 4.32e+06 B41(2) + I75(9)
   - I79(9) >= -1.2958497e+07
 c102: - 4.32e+06 B4(7) - 4.32e+06 B8(7) + 4.32e+06 B41(2) - I75(9)
   + I79(9) >= -8.638414e+06
 c103: - 4.32e+06 B4(7) - 4.32e+06 B11(8) - 4.32e+06 B42(2) + I75(9)
   - I82(9) >= -1.2957079e+07
 c104: - 4.32e+06 B4(7) - 4.32e+06 B11(8) + 4.32e+06 B42(2) - I75(9)
   + I82(9) >= -8.637868e+06
 c105: - 4.32e+06 B5(11) - 4.32e+06 B10(12) - 4.32e+06 B43(2) + I76(12)
   - I81(12) >= -1.295792e+07
 c106: - 4.32e+06 B5(11) - 4.32e+06 B10(12) + 4.32e+06 B43(2) - I76(12)
   + I81(12) >= -8.638284e+06
 c107: - 4.32e+06 B5(11) - 4.32e+06 B15(12) - 4.32e+06 B44(2) + I76(12)
   - I86(12) >= -1.2958308e+07
 c108: - 4.32e+06 B5(11) - 4.32e+06 B15(12) + 4.32e+06 B44(2) - I76(12)
   + I86(12) >= -8.638177e+06
 c109: - 4.32e+06 B5(11) - 4.32e+06 B19(11) - 4.32e+06 B45(2) + I76(12)
   - I90(12) >= -1.2956987e+07
 c110: - 4.32e+06 B5(11) - 4.32e+06 B19(11) + 4.32e+06 B45(2) - I76(12)
   + I90(12) >= -8.638305e+06
 c111: - 4.32e+06 B6(13) - 4.32e+06 B14(14) - 4.32e+06 B46(2) + I77(15)
   - I85(15) >= -1.2958071e+07
 c112: - 4.32e+06 B6(13) - 4.32e+06 B14(14) + 4.32e+06 B46(2) - I77(15)
   + I85(15) >= -8.637845e+06
 c113: - 4.32e+06 B6(13) - 4.32e+06 B18(14) - 4.32e+06 B47(2) + I77(15)
   - I89(15) >= -1.2956585e+07
 c114: - 4.32e+06 B6(13) - 4.32e+06 B18(14) + 4.32e+06 B47(2) - I77(15)
   + I89(15) >= -8.637952e+06
 c115: - 4.32e+06 B6(13) - 4.32e+06 B21(11) - 4.32e+06 B48(2) + I77(15)
   - I92(13) >= -1.2958374e+07
 c116: - 4.32e+06 B6(13) - 4.32e+06 B21(11) + 4.32e+06 B48(2) - I77(15)
   + I92(13) >= -8.638083e+06
 c117: - 4.32e+06 B6(13) - 4.32e+06 B23(11) - 4.32e+06 B49(2) + I77(15)
   - I94(13) >= -1.2958454e+07
 c118: - 4.32e+06 B6(13) - 4.32e+06 B23(11) + 4.32e+06 B49(2) - I77(15)
   + I94(13) >= -8.638456e+06
 c119: - 4.32e+06 B7(11) - 4.32e+06 B13(12) - 4.32e+06 B50(2) + I78(13)
   - I84(13) >= -1.2958013e+07
 c120: - 4.32e+06 B7(11) - 4.32e+06 B13(12) + 4.32e+06 B50(2) - I78(13)
   + I84(13) >= -8.638449e+06
 c121: - 4.32e+06 B7(11) - 4.32e+06 B16(12) - 4.32e+06 B51(2) + I78(13)
   - I87(13) >= -1.2957045e+07
 c122: - 4.32e+06 B7(11) - 4.32e+06 B16(12) + 4.32e+06 B51(2) - I78(13)
   + I87(13) >= -8.638302e+06
 c123: - 4.32e+06 B7(11) - 4.32e+06 B20(11) - 4.32e+06 B52(2) + I78(13)
   - I91(13) >= -1.2958553e+07
 c124: - 4.32e+06 B7(11) - 4.32e+06 B20(11) + 4.32e+06 B52(2) - I78(13)
   + I91(13) >= -8.638123e+06
 c125: - 4.32e+06 B8(7) - 4.32e+06 B11(8) - 4.32e+06 B53(2) + I79(9)
   - I82(9) >= -1.2956511e+07
 c126: - 4.32e+06 B8(7) - 4.32e+06 B11(8) + 4.32e+06 B53(2) - I79(9)
   + I82(9) >= -8.638426e+06
 c127: - 4.32e+06 B9(11) - 4.32e+06 B12(12) - 4.32e+06 B54(2) + I80(13)
   - I83(13) >= -1.2955286e+07
 c128: - 4.32e+06 B9(11) - 4.32e+06 B12(12) + 4.32e+06 B54(2) - I80(13)
   + I83(13) >= -8.638182e+06
 c129: - 4.32e+06 B9(11) - 4.32e+06 B17(12) - 4.32e+06 B55(2) + I80(13)
   - I88(13) >= -1.2957086e+07
 c130: - 4.32e+06 B9(11) - 4.32e+06 B17(12) + 4.32e+06 B55(2) - I80(13)
   + I88(13) >= -8.637959e+06
 c131: - 4.32e+06 B9(11) - 4.32e+06 B22(11) - 4.32e+06 B56(2) + I80(13)
   - I93(13) >= -1.2958076e+07
 c132: - 4.32e+06 B9(11) - 4.32e+06 B22(11) + 4.32e+06 B56(2) - I80(13)
   + I93(13) >= -8.63831e+06
 c133: - 4.32e+06 B10(12) - 4.32e+06 B15(12) - 4.32e+06 B57(2) + I81(12)
   - I86(12) >= -1.2958534e+07
 c134: - 4.32e+06 B10(12) - 4.32e+06 B15(12) + 4.32e+06 B57(2) - I81(12)
   + I86(12) >= -8.638552e+06
 c135: - 4.32e+06 B10(12) - 4.32e+06 B19(11) - 4.32e+06 B58(2) + I81(12)
   - I90(12) >= -1.2956514e+07
 c136: - 4.32e+06 B10(12) - 4.32e+06 B19(11) + 4.32e+06 B58(2) - I81(12)
   + I90(12) >= -8.638253e+06
 c137: - 4.32e+06 B12(12) - 4.32e+06 B17(12) - 4.32e+06 B59(2) + I83(13)
   - I88(13) >= -1.2956935e+07
 c138: - 4.32e+06 B12(12) - 4.32e+06 B17(12) + 4.32e+06 B59(2) - I83(13)
   + I88(13) >= -8.635522e+06
 c139: - 4.32e+06 B12(12) - 4.32e+06 B22(11) - 4.32e+06 B60(2) + I83(13)
   - I93(13) >= -1.2958285e+07
 c140: - 4.32e+06 B12(12) - 4.32e+06 B22(11) + 4.32e+06 B60(2) - I83(13)
   + I93(13) >= -8.634935e+06
 c141: - 4.32e+06 B13(12) - 4.32e+06 B16(12) - 4.32e+06 B61(2) + I84(13)
   - I87(13) >= -1.2957071e+07
 c142: - 4.32e+06 B13(12) - 4.32e+06 B16(12) + 4.32e+06 B61(2) - I84(13)
   + I87(13) >= -8.638158e+06
 c143: - 4.32e+06 B13(12) - 4.32e+06 B20(11) - 4.32e+06 B62(2) + I84(13)
   - I91(13) >= -1.2958018e+07
 c144: - 4.32e+06 B13(12) - 4.32e+06 B20(11) + 4.32e+06 B62(2) - I84(13)
   + I91(13) >= -8.637975e+06
 c145: - 4.32e+06 B14(14) - 4.32e+06 B18(14) - 4.32e+06 B63(2) + I85(15)
   - I89(15) >= -1.2956177e+07
 c146: - 4.32e+06 B14(14) - 4.32e+06 B18(14) + 4.32e+06 B63(2) - I85(15)
   + I89(15) >= -8.638176e+06
 c147: - 4.32e+06 B14(14) - 4.32e+06 B21(11) - 4.32e+06 B64(2) + I85(15)
   - I92(13) >= -1.2958274e+07
 c148: - 4.32e+06 B14(14) - 4.32e+06 B21(11) + 4.32e+06 B64(2) - I85(15)
   + I92(13) >= -8.638408e+06
 c149: - 4.32e+06 B14(14) - 4.32e+06 B23(11) - 4.32e+06 B65(2) + I85(15)
   - I94(13) >= -1.2958182e+07
 c150: - 4.32e+06 B14(14) - 4.32e+06 B23(11) + 4.32e+06 B65(2) - I85(15)
   + I94(13) >= -8.63814e+06
 c151: - 4.32e+06 B15(12) - 4.32e+06 B19(11) - 4.32e+06 B66(2) + I86(12)
   - I90(12) >= -1.2956662e+07
 c152: - 4.32e+06 B15(12) - 4.32e+06 B19(11) + 4.32e+06 B66(2) - I86(12)
   + I90(12) >= -8.637692e+06
 c153: - 4.32e+06 B16(12) - 4.32e+06 B20(11) - 4.32e+06 B67(2) + I87(13)
   - I91(13) >= -1.2958556e+07
 c154: - 4.32e+06 B16(12) - 4.32e+06 B20(11) + 4.32e+06 B67(2) - I87(13)
   + I91(13) >= -8.636439e+06
 c155: - 4.32e+06 B17(12) - 4.32e+06 B22(11) - 4.32e+06 B68(2) + I88(13)
   - I93(13) >= -1.2958342e+07
 c156: - 4.32e+06 B17(12) - 4.32e+06 B22(11) + 4.32e+06 B68(2) - I88(13)
   + I93(13) >= -8.637025e+06
 c157: - 4.32e+06 B18(14) - 4.32e+06 B21(11) - 4.32e+06 B69(2) + I89(15)
   - I92(13) >= -1.2958385e+07
 c158: - 4.32e+06 B18(14) - 4.32e+06 B21(11) + 4.32e+06 B69(2) - I89(15)
   + I92(13) >= -8.636364e+06
 c159: - 4.32e+06 B18(14) - 4.32e+06 B23(11) - 4.32e+06 B70(2) + I89(15)
   - I94(13) >= -1.2958354e+07
 c160: - 4.32e+06 B18(14) - 4.32e+06 B23(11) + 4.32e+06 B70(2) - I89(15)
   + I94(13) >= -8.63674e+06
 c161: I71(12) >= 0
 c162: I71(12) >= 0
 c163: I72(13) >= 0
 c164: I72(13) >= 0
 c165: I73(13) >= 0
 c166: I73(13) >= 0
 c167: I74(15) >= 0
 c168: I74(15) >= 0
 c169: I75(9) >= 0
 c170: I75(9) >= 0
 c171: I76(12) >= 0
 c172: I76(12) >= 0
 c173: I77(15) >= 0
 c174: I77(15) >= 0
 c175: I78(13) >= 0
 c176: I78(13) >= 0
 c177: I79(9) >= 0
 c178: I79(9) >= 0
 c179: I80(13) >= 0
 c180: I80(13) >= 0
 c181: - 2880 B10(12) + I81(12) >= 0
 c182: I81(12) >= 0
 c183: - 2880 B11(8) + I82(9) >= 0
 c184: I82(9) >= 0
 c185: - 2880 B12(12) + I83(13) >= 0
 c186: I83(13) >= 0
 c187: - 2880 B13(12) + I84(13) >= 0
 c188: I84(13) >= 0
 c189: - 2880 B14(14) + I85(15) >= 0
 c190: I85(15) >= 0
 c191: - 1440 B15(12) + I86(12) >= 0
 c192: I86(12) >= 0
 c193: - 1440 B16(12) + I87(13) >= 0
 c194: I87(13) >= 0
 c195: - 1440 B17(12) + I88(13) >= 0
 c196: I88(13) >= 0
 c197: - 1440 B18(14) + I89(15) >= 0
 c198: I89(15) >= 0
 c199: I90(12) >= 0
 c200: I90(12) >= 0
 c201: I91(13) >= 0
 c202: I91(13) >= 0
 c203: I92(13) >= 0
 c204: I92(13) >= 0
 c205: I93(13) >= 0
 c206: I93(13) >= 0
 c207: I94(13) >= 0
 c208: I94(13) >= 0
 c209: - 1440 B4(7) - 1440 B9(11) - 1440 B14(14) - 2880 B18(14)
   - 1440 B23(11) - I75(9) - I80(13) - I85(15) - I89(15) - I94(13) + I95(1)
   = -103680
Bounds
Binaries
 B0(11) B1(11) B2(11) B3(13) B4(7) B5(11) B6(13) B7(11) B8(7) B9(11)
 B10(12) B11(8) B12(12) B13(12) B14(14) B15(12) B16(12) B17(12) B18(14)
 B19(11) B20(11) B21(11) B22(11) B23(11) B24(2) B25(2) B26(2) B27(2) B28(2)
 B29(2) B30(2) B31(2) B32(2) B33(2) B34(2) B35(2) B36(2) B37(2) B38(2)
 B39(2) B40(2) B41(2) B42(2) B43(2) B44(2) B45(2) B46(2) B47(2) B48(2)
 B49(2) B50(2) B51(2) B52(2) B53(2) B54(2) B55(2) B56(2) B57(2) B58(2)
 B59(2) B60(2) B61(2) B62(2) B63(2) B64(2) B65(2) B66(2) B67(2) B68(2)
 B69(2) B70(2)
Generals
 I71(12) I72(13) I73(13) I74(15) I75(9) I76(12) I77(15) I78(13) I79(9)
 I80(13) I81(12) I82(9) I83(13) I84(13) I85(15) I86(12) I87(13) I88(13)
 I89(15) I90(12) I91(13) I92(13) I93(13) I94(13) I95(1)
End
